p tw 24 72
1 2
1 20
1 21
1 22
1 11
1 17
2 13
2 22
2 23
2 11
2 12
13 18
13 23
13 24
13 12
13 14
18 19
18 24
18 3
18 14
18 15
19 20
19 3
19 4
19 15
19 16
20 21
20 4
20 16
20 17
21 22
21 4
21 5
21 6
22 23
22 6
22 7
23 24
23 7
23 8
24 3
24 8
24 9
3 4
3 9
3 10
4 5
4 10
5 6
5 10
5 11
5 12
6 7
6 12
6 14
7 8
7 14
7 15
8 9
8 15
8 16
9 10
9 16
9 17
10 11
10 17
11 12
11 17
12 14
14 15
15 16
16 17
